11136.0
[1, 0, 0, 0, 0, 0, 1, 1, 0, 0, 1, 1, 1, 1, 0, 0, 0, 1, 0, 1]
[0, 12, 10, 10, 19, 12, 17, 13, 12, 17, 7, 19, 19, 6, 13, 11, 7, 10, 17, 6, 12, 7, 7, 19, 6, 17, 0, 17, 12, 17, 13, 7, 13, 0, 11, 10, 11, 19, 19, 13, 6, 0, 0, 7, 11, 13, 12, 10, 19, 6]